(set-info :smt-lib-version 2.6)
(set-info :category "crafted")
(set-logic QF_FFA)
(define-sort FF0 () (_ FiniteField 52435875175126190479447740508185965837690552500527637822603658699938581184513))
(declare-fun b_n3_alt () FF0)
(declare-fun is_zero_n17_alt () FF0)
(declare-fun is_zero_n20_alt () FF0)
(declare-fun is_zero_n13_alt () FF0)
(declare-fun mul_n18_alt () FF0)
(declare-fun mul_n5_alt () FF0)
(declare-fun return_n2_alt () FF0)
(declare-fun is_zero_inv_n21_alt () FF0)
(declare-fun mul_n11_alt () FF0)
(declare-fun a_n4_alt () FF0)
(declare-fun d_n0_alt () FF0)
(declare-fun is_zero_inv_n19_alt () FF0)
(declare-fun c_n1_alt () FF0)
(declare-fun is_zero_n15_alt () FF0)
(declare-fun is_zero_inv_n16_alt () FF0)
(declare-fun mul_n10_alt () FF0)
(declare-fun mul_n8_alt () FF0)
(declare-fun is_zero_inv_n14_alt () FF0)
(declare-fun is_zero_n7_alt () FF0)
(declare-fun is_zero_inv_n12_alt () FF0)
(declare-fun mul_n9_alt () FF0)
(declare-fun is_zero_inv_n6_alt () FF0)
(declare-fun b_n3 () FF0)
(declare-fun is_zero_n17 () FF0)
(declare-fun is_zero_n20 () FF0)
(declare-fun is_zero_n13 () FF0)
(declare-fun mul_n18 () FF0)
(declare-fun mul_n5 () FF0)
(declare-fun return_n2 () FF0)
(declare-fun is_zero_inv_n21 () FF0)
(declare-fun mul_n11 () FF0)
(declare-fun a_n4 () FF0)
(declare-fun d_n0 () FF0)
(declare-fun is_zero_inv_n19 () FF0)
(declare-fun c_n1 () FF0)
(declare-fun is_zero_n15 () FF0)
(declare-fun is_zero_inv_n16 () FF0)
(declare-fun mul_n10 () FF0)
(declare-fun mul_n8 () FF0)
(declare-fun is_zero_inv_n14 () FF0)
(declare-fun is_zero_n7 () FF0)
(declare-fun is_zero_inv_n12 () FF0)
(declare-fun mul_n9 () FF0)
(declare-fun is_zero_inv_n6 () FF0)
(assert 
  (let ((let0 (as ff0 FF0)))
  (let ((let1 (as ff2 FF0)))
  (let ((let2 b_n3_alt))
  (let ((let3 is_zero_n17_alt))
  (let ((let4 (as ff52435875175126190479447740508185965837690552500527637822603658699938581184512 FF0)))
  (let ((let5 is_zero_n20_alt))
  (let ((let6 (ff.mul let5 let4)))
  (let ((let7 is_zero_n13_alt))
  (let ((let8 mul_n18_alt))
  (let ((let9 (ff.mul let8 let4)))
  (let ((let10 mul_n5_alt))
  (let ((let11 (ff.mul let10 let4)))
  (let ((let12 (ff.add let11 let9 let7 let6 let3 let2 let1)))
  (let ((let13 return_n2_alt))
  (let ((let14 (ff.mul let13 let12)))
  (let ((let15 (= let14 let0)))
  (let ((let16 (as ff1 FF0)))
  (let ((let17 (ff.mul let13 let4)))
  (let ((let18 (ff.add let17 let16)))
  (let ((let19 is_zero_inv_n21_alt))
  (let ((let20 (ff.mul let19 let12)))
  (let ((let21 (= let20 let18)))
  (let ((let22 (as ff3 FF0)))
  (let ((let23 mul_n11_alt))
  (let ((let24 a_n4_alt))
  (let ((let25 (ff.mul let24 let4)))
  (let ((let26 (ff.mul let7 let4)))
  (let ((let27 d_n0_alt))
  (let ((let28 (ff.mul let27 let4)))
  (let ((let29 (ff.add let28 let26 let25 let23 let22)))
  (let ((let30 (ff.mul let5 let29)))
  (let ((let31 (= let30 let0)))
  (let ((let32 (ff.add let6 let16)))
  (let ((let33 is_zero_inv_n19_alt))
  (let ((let34 (ff.mul let33 let29)))
  (let ((let35 (= let34 let32)))
  (let ((let36 (ff.mul let2 let1)))
  (let ((let37 (ff.add let36 let4)))
  (let ((let38 c_n1_alt))
  (let ((let39 (ff.mul let38 let37)))
  (let ((let40 (= let39 let8)))
  (let ((let41 is_zero_n15_alt))
  (let ((let42 (ff.mul let41 let1)))
  (let ((let43 (ff.add let2 let26 let42 let16)))
  (let ((let44 (ff.mul let3 let43)))
  (let ((let45 (= let44 let0)))
  (let ((let46 (ff.mul let3 let4)))
  (let ((let47 (ff.add let46 let16)))
  (let ((let48 is_zero_inv_n16_alt))
  (let ((let49 (ff.mul let48 let43)))
  (let ((let50 (= let49 let47)))
  (let ((let51 (as ff4 FF0)))
  (let ((let52 (as ff52435875175126190479447740508185965837690552500527637822603658699938581184511 FF0)))
  (let ((let53 (ff.mul let2 let52)))
  (let ((let54 (ff.mul let23 let4)))
  (let ((let55 mul_n10_alt))
  (let ((let56 (ff.mul let55 let4)))
  (let ((let57 mul_n8_alt))
  (let ((let58 (ff.mul let57 let52)))
  (let ((let59 (ff.add let58 let7 let56 let54 let53 let51)))
  (let ((let60 (ff.mul let41 let59)))
  (let ((let61 (= let60 let0)))
  (let ((let62 (ff.mul let41 let4)))
  (let ((let63 (ff.add let62 let16)))
  (let ((let64 is_zero_inv_n14_alt))
  (let ((let65 (ff.mul let64 let59)))
  (let ((let66 (= let65 let63)))
  (let ((let67 (ff.mul let2 let4)))
  (let ((let68 is_zero_n7_alt))
  (let ((let69 (ff.mul let68 let4)))
  (let ((let70 (ff.mul let57 let4)))
  (let ((let71 (ff.add let28 let70 let10 let69 let25 let67 let51)))
  (let ((let72 (ff.mul let7 let71)))
  (let ((let73 (= let72 let0)))
  (let ((let74 (ff.add let26 let16)))
  (let ((let75 is_zero_inv_n12_alt))
  (let ((let76 (ff.mul let75 let71)))
  (let ((let77 (= let76 let74)))
  (let ((let78 (ff.add let70 let67 let16)))
  (let ((let79 (ff.mul let78 let55)))
  (let ((let80 (= let79 let23)))
  (let ((let81 (ff.mul let38 let4)))
  (let ((let82 (ff.add let81 let16)))
  (let ((let83 mul_n9_alt))
  (let ((let84 (ff.mul let83 let82)))
  (let ((let85 (= let84 let55)))
  (let ((let86 (ff.add let69 let16)))
  (let ((let87 (ff.mul let78 let86)))
  (let ((let88 (= let87 let83)))
  (let ((let89 (ff.add let11 let67 let16)))
  (let ((let90 (ff.mul let24 let89)))
  (let ((let91 (= let90 let57)))
  (let ((let92 (ff.add let10 let25 let81 let22)))
  (let ((let93 (ff.mul let68 let92)))
  (let ((let94 (= let93 let0)))
  (let ((let95 is_zero_inv_n6_alt))
  (let ((let96 (ff.mul let95 let92)))
  (let ((let97 (= let96 let86)))
  (let ((let98 (ff.mul let38 let2)))
  (let ((let99 (= let98 let10)))
  (let ((let100 (and let99 let97 let94 let91 let88 let85 let80 let77 let73 let66 let61 let50 let45 let40 let35 let31 let21 let15)))
  (let ((let101 b_n3))
  (let ((let102 is_zero_n17))
  (let ((let103 is_zero_n20))
  (let ((let104 (ff.mul let103 let4)))
  (let ((let105 is_zero_n13))
  (let ((let106 mul_n18))
  (let ((let107 (ff.mul let106 let4)))
  (let ((let108 mul_n5))
  (let ((let109 (ff.mul let108 let4)))
  (let ((let110 (ff.add let109 let107 let105 let104 let102 let101 let1)))
  (let ((let111 return_n2))
  (let ((let112 (ff.mul let111 let110)))
  (let ((let113 (= let112 let0)))
  (let ((let114 (ff.mul let111 let4)))
  (let ((let115 (ff.add let114 let16)))
  (let ((let116 is_zero_inv_n21))
  (let ((let117 (ff.mul let116 let110)))
  (let ((let118 (= let117 let115)))
  (let ((let119 mul_n11))
  (let ((let120 a_n4))
  (let ((let121 (ff.mul let120 let4)))
  (let ((let122 (ff.mul let105 let4)))
  (let ((let123 d_n0))
  (let ((let124 (ff.mul let123 let4)))
  (let ((let125 (ff.add let124 let122 let121 let119 let22)))
  (let ((let126 (ff.mul let103 let125)))
  (let ((let127 (= let126 let0)))
  (let ((let128 (ff.add let104 let16)))
  (let ((let129 is_zero_inv_n19))
  (let ((let130 (ff.mul let129 let125)))
  (let ((let131 (= let130 let128)))
  (let ((let132 (ff.mul let101 let1)))
  (let ((let133 (ff.add let132 let4)))
  (let ((let134 c_n1))
  (let ((let135 (ff.mul let134 let133)))
  (let ((let136 (= let135 let106)))
  (let ((let137 is_zero_n15))
  (let ((let138 (ff.mul let137 let1)))
  (let ((let139 (ff.add let101 let122 let138 let16)))
  (let ((let140 (ff.mul let102 let139)))
  (let ((let141 (= let140 let0)))
  (let ((let142 (ff.mul let102 let4)))
  (let ((let143 (ff.add let142 let16)))
  (let ((let144 is_zero_inv_n16))
  (let ((let145 (ff.mul let144 let139)))
  (let ((let146 (= let145 let143)))
  (let ((let147 (ff.mul let101 let52)))
  (let ((let148 (ff.mul let119 let4)))
  (let ((let149 mul_n10))
  (let ((let150 (ff.mul let149 let4)))
  (let ((let151 mul_n8))
  (let ((let152 (ff.mul let151 let52)))
  (let ((let153 (ff.add let152 let105 let150 let148 let147 let51)))
  (let ((let154 (ff.mul let137 let153)))
  (let ((let155 (= let154 let0)))
  (let ((let156 (ff.mul let137 let4)))
  (let ((let157 (ff.add let156 let16)))
  (let ((let158 is_zero_inv_n14))
  (let ((let159 (ff.mul let158 let153)))
  (let ((let160 (= let159 let157)))
  (let ((let161 (ff.mul let101 let4)))
  (let ((let162 is_zero_n7))
  (let ((let163 (ff.mul let162 let4)))
  (let ((let164 (ff.mul let151 let4)))
  (let ((let165 (ff.add let124 let164 let108 let163 let121 let161 let51)))
  (let ((let166 (ff.mul let105 let165)))
  (let ((let167 (= let166 let0)))
  (let ((let168 (ff.add let122 let16)))
  (let ((let169 is_zero_inv_n12))
  (let ((let170 (ff.mul let169 let165)))
  (let ((let171 (= let170 let168)))
  (let ((let172 (ff.add let164 let161 let16)))
  (let ((let173 (ff.mul let172 let149)))
  (let ((let174 (= let173 let119)))
  (let ((let175 (ff.mul let134 let4)))
  (let ((let176 (ff.add let175 let16)))
  (let ((let177 mul_n9))
  (let ((let178 (ff.mul let177 let176)))
  (let ((let179 (= let178 let149)))
  (let ((let180 (ff.add let163 let16)))
  (let ((let181 (ff.mul let172 let180)))
  (let ((let182 (= let181 let177)))
  (let ((let183 (ff.add let109 let161 let16)))
  (let ((let184 (ff.mul let120 let183)))
  (let ((let185 (= let184 let151)))
  (let ((let186 (ff.add let108 let121 let175 let22)))
  (let ((let187 (ff.mul let162 let186)))
  (let ((let188 (= let187 let0)))
  (let ((let189 is_zero_inv_n6))
  (let ((let190 (ff.mul let189 let186)))
  (let ((let191 (= let190 let180)))
  (let ((let192 (ff.mul let134 let101)))
  (let ((let193 (= let192 let108)))
  (let ((let194 (and let193 let191 let188 let185 let182 let179 let174 let171 let167 let160 let155 let146 let141 let136 let131 let127 let118 let113)))
  (let ((let195 (= let111 let13)))
  (let ((let196 (not let195)))
  (let ((let197 (= let123 let27)))
  (let ((let198 (= let134 let38)))
  (let ((let199 (= let101 let2)))
  (let ((let200 (= let120 let24)))
  (let ((let201 (and let200 let199 let198 let197)))
  (let ((let202 (and let201 let196 let194 let100)))
  let202
)))))))))))))))))))))))))))))))))))))))))))))))))))))))))))))))))))))))))))))))))))))))))))))))))))))))))))))))))))))))))))))))))))))))))))))))))))))))))))))))))))))))))))))))))))))))))))))))))))))))))))
)
(check-sat)
